p cnf 386 460
-10 -16 5 21 22 0
-10 -16 5 21 -22 0
-10 -16 5 -21 23 0
-10 -16 5 -21 -23 0
16 -6 5 24 25 0
16 -6 5 24 -25 0
16 -6 5 -24 26 0
16 -6 5 -24 -26 0
-17 -14 -18 27 28 0
-17 -14 -18 27 -28 0
-17 -14 -18 -27 29 0
-17 -14 -18 -27 -29 0
-10 -15 19 30 31 0
-10 -15 19 30 -31 0
-10 -15 19 -30 32 0
-10 -15 19 -30 -32 0
-1 -9 -18 33 34 0
-1 -9 -18 33 -34 0
-1 -9 -18 -33 35 0
-1 -9 -18 -33 -35 0
3 7 -6 36 37 0
3 7 -6 36 -37 0
3 7 -6 -36 38 0
3 7 -6 -36 -38 0
-13 1 6 39 40 0
-13 1 6 39 -40 0
-13 1 6 -39 41 0
-13 1 6 -39 -41 0
-2 -16 -20 42 43 0
-2 -16 -20 42 -43 0
-2 -16 -20 -42 44 0
-2 -16 -20 -42 -44 0
7 8 18 45 46 0
7 8 18 45 -46 0
7 8 18 -45 47 0
7 8 18 -45 -47 0
-7 10 -20 48 49 0
-7 10 -20 48 -49 0
-7 10 -20 -48 50 0
-7 10 -20 -48 -50 0
2 -14 -17 51 52 0
2 -14 -17 51 -52 0
2 -14 -17 -51 53 0
2 -14 -17 -51 -53 0
2 1 19 54 55 0
2 1 19 54 -55 0
2 1 19 -54 56 0
2 1 19 -54 -56 0
7 -20 -1 57 58 0
7 -20 -1 57 -58 0
7 -20 -1 -57 59 0
7 -20 -1 -57 -59 0
-11 1 -17 60 61 0
-11 1 -17 60 -61 0
-11 1 -17 -60 62 0
-11 1 -17 -60 -62 0
3 -12 19 63 64 0
3 -12 19 63 -64 0
3 -12 19 -63 65 0
3 -12 19 -63 -65 0
-3 -13 6 66 67 0
-3 -13 6 66 -67 0
-3 -13 6 -66 68 0
-3 -13 6 -66 -68 0
-13 3 -12 69 70 0
-13 3 -12 69 -70 0
-13 3 -12 -69 71 0
-13 3 -12 -69 -71 0
5 -7 -12 72 73 0
5 -7 -12 72 -73 0
5 -7 -12 -72 74 0
5 -7 -12 -72 -74 0
20 8 -16 75 76 0
20 8 -16 75 -76 0
20 8 -16 -75 77 0
20 8 -16 -75 -77 0
-13 -6 19 78 79 0
-13 -6 19 78 -79 0
-13 -6 19 -78 80 0
-13 -6 19 -78 -80 0
-5 1 14 81 82 0
-5 1 14 81 -82 0
-5 1 14 -81 83 0
-5 1 14 -81 -83 0
9 -5 18 84 85 0
9 -5 18 84 -85 0
9 -5 18 -84 86 0
9 -5 18 -84 -86 0
-12 -17 -1 87 88 0
-12 -17 -1 87 -88 0
-12 -17 -1 -87 89 0
-12 -17 -1 -87 -89 0
-20 -16 19 90 91 0
-20 -16 19 90 -91 0
-20 -16 19 -90 92 0
-20 -16 19 -90 -92 0
12 10 -11 93 94 0
12 10 -11 93 -94 0
12 10 -11 -93 95 0
12 10 -11 -93 -95 0
6 -7 -2 96 97 0
6 -7 -2 96 -97 0
6 -7 -2 -96 98 0
6 -7 -2 -96 -98 0
13 -10 17 99 100 0
13 -10 17 99 -100 0
13 -10 17 -99 101 0
13 -10 17 -99 -101 0
-20 8 -16 102 103 0
-20 8 -16 102 -103 0
-20 8 -16 -102 104 0
-20 8 -16 -102 -104 0
-10 -1 -8 105 106 0
-10 -1 -8 105 -106 0
-10 -1 -8 -105 107 0
-10 -1 -8 -105 -107 0
-7 -3 19 108 109 0
-7 -3 19 108 -109 0
-7 -3 19 -108 110 0
-7 -3 19 -108 -110 0
19 -1 -6 111 112 0
19 -1 -6 111 -112 0
19 -1 -6 -111 113 0
19 -1 -6 -111 -113 0
19 -2 13 114 115 0
19 -2 13 114 -115 0
19 -2 13 -114 116 0
19 -2 13 -114 -116 0
-2 20 -9 117 118 0
-2 20 -9 117 -118 0
-2 20 -9 -117 119 0
-2 20 -9 -117 -119 0
-8 -20 16 120 121 0
-8 -20 16 120 -121 0
-8 -20 16 -120 122 0
-8 -20 16 -120 -122 0
-13 -1 11 123 124 0
-13 -1 11 123 -124 0
-13 -1 11 -123 125 0
-13 -1 11 -123 -125 0
15 -12 -6 126 127 0
15 -12 -6 126 -127 0
15 -12 -6 -126 128 0
15 -12 -6 -126 -128 0
-17 -19 9 129 130 0
-17 -19 9 129 -130 0
-17 -19 9 -129 131 0
-17 -19 9 -129 -131 0
19 -18 16 132 133 0
19 -18 16 132 -133 0
19 -18 16 -132 134 0
19 -18 16 -132 -134 0
7 -8 -19 135 136 0
7 -8 -19 135 -136 0
7 -8 -19 -135 137 0
7 -8 -19 -135 -137 0
-3 -7 -1 138 139 0
-3 -7 -1 138 -139 0
-3 -7 -1 -138 140 0
-3 -7 -1 -138 -140 0
7 -17 -16 141 142 0
7 -17 -16 141 -142 0
7 -17 -16 -141 143 0
7 -17 -16 -141 -143 0
-2 -14 1 144 145 0
-2 -14 1 144 -145 0
-2 -14 1 -144 146 0
-2 -14 1 -144 -146 0
-18 -10 -8 147 148 0
-18 -10 -8 147 -148 0
-18 -10 -8 -147 149 0
-18 -10 -8 -147 -149 0
-16 5 8 150 151 0
-16 5 8 150 -151 0
-16 5 8 -150 152 0
-16 5 8 -150 -152 0
4 8 10 153 154 0
4 8 10 153 -154 0
4 8 10 -153 155 0
4 8 10 -153 -155 0
-20 -11 -19 156 157 0
-20 -11 -19 156 -157 0
-20 -11 -19 -156 158 0
-20 -11 -19 -156 -158 0
8 -16 -6 159 160 0
8 -16 -6 159 -160 0
8 -16 -6 -159 161 0
8 -16 -6 -159 -161 0
18 12 8 162 163 0
18 12 8 162 -163 0
18 12 8 -162 164 0
18 12 8 -162 -164 0
-5 -20 -10 165 166 0
-5 -20 -10 165 -166 0
-5 -20 -10 -165 167 0
-5 -20 -10 -165 -167 0
16 17 3 168 169 0
16 17 3 168 -169 0
16 17 3 -168 170 0
16 17 3 -168 -170 0
7 -1 -17 171 172 0
7 -1 -17 171 -172 0
7 -1 -17 -171 173 0
7 -1 -17 -171 -173 0
17 -4 7 174 175 0
17 -4 7 174 -175 0
17 -4 7 -174 176 0
17 -4 7 -174 -176 0
20 -9 -13 177 178 0
20 -9 -13 177 -178 0
20 -9 -13 -177 179 0
20 -9 -13 -177 -179 0
13 18 16 180 181 0
13 18 16 180 -181 0
13 18 16 -180 182 0
13 18 16 -180 -182 0
-16 -6 5 183 184 0
-16 -6 5 183 -184 0
-16 -6 5 -183 185 0
-16 -6 5 -183 -185 0
5 17 7 186 187 0
5 17 7 186 -187 0
5 17 7 -186 188 0
5 17 7 -186 -188 0
-12 -17 -6 189 190 0
-12 -17 -6 189 -190 0
-12 -17 -6 -189 191 0
-12 -17 -6 -189 -191 0
-20 19 -5 192 193 0
-20 19 -5 192 -193 0
-20 19 -5 -192 194 0
-20 19 -5 -192 -194 0
9 -19 16 195 196 0
9 -19 16 195 -196 0
9 -19 16 -195 197 0
9 -19 16 -195 -197 0
-13 -16 11 198 199 0
-13 -16 11 198 -199 0
-13 -16 11 -198 200 0
-13 -16 11 -198 -200 0
-4 -19 -18 201 202 0
-4 -19 -18 201 -202 0
-4 -19 -18 -201 203 0
-4 -19 -18 -201 -203 0
-13 10 -15 204 205 0
-13 10 -15 204 -205 0
-13 10 -15 -204 206 0
-13 10 -15 -204 -206 0
16 -7 -14 207 208 0
16 -7 -14 207 -208 0
16 -7 -14 -207 209 0
16 -7 -14 -207 -209 0
-19 -7 -18 210 211 0
-19 -7 -18 210 -211 0
-19 -7 -18 -210 212 0
-19 -7 -18 -210 -212 0
-20 5 13 213 214 0
-20 5 13 213 -214 0
-20 5 13 -213 215 0
-20 5 13 -213 -215 0
12 -6 4 216 217 0
12 -6 4 216 -217 0
12 -6 4 -216 218 0
12 -6 4 -216 -218 0
7 9 -13 219 220 0
7 9 -13 219 -220 0
7 9 -13 -219 221 0
7 9 -13 -219 -221 0
16 3 7 222 223 0
16 3 7 222 -223 0
16 3 7 -222 224 0
16 3 7 -222 -224 0
9 -1 12 225 226 0
9 -1 12 225 -226 0
9 -1 12 -225 227 0
9 -1 12 -225 -227 0
-3 14 7 228 229 0
-3 14 7 228 -229 0
-3 14 7 -228 230 0
-3 14 7 -228 -230 0
1 15 14 231 232 0
1 15 14 231 -232 0
1 15 14 -231 233 0
1 15 14 -231 -233 0
-8 -11 18 234 235 0
-8 -11 18 234 -235 0
-8 -11 18 -234 236 0
-8 -11 18 -234 -236 0
19 -9 7 237 238 0
19 -9 7 237 -238 0
19 -9 7 -237 239 0
19 -9 7 -237 -239 0
-10 6 2 240 241 0
-10 6 2 240 -241 0
-10 6 2 -240 242 0
-10 6 2 -240 -242 0
14 18 -11 243 244 0
14 18 -11 243 -244 0
14 18 -11 -243 245 0
14 18 -11 -243 -245 0
-9 -16 14 246 247 0
-9 -16 14 246 -247 0
-9 -16 14 -246 248 0
-9 -16 14 -246 -248 0
1 11 -20 249 250 0
1 11 -20 249 -250 0
1 11 -20 -249 251 0
1 11 -20 -249 -251 0
11 12 -4 252 253 0
11 12 -4 252 -253 0
11 12 -4 -252 254 0
11 12 -4 -252 -254 0
13 -11 -14 255 256 0
13 -11 -14 255 -256 0
13 -11 -14 -255 257 0
13 -11 -14 -255 -257 0
17 -12 9 258 259 0
17 -12 9 258 -259 0
17 -12 9 -258 260 0
17 -12 9 -258 -260 0
14 9 1 261 262 0
14 9 1 261 -262 0
14 9 1 -261 263 0
14 9 1 -261 -263 0
8 19 4 264 265 0
8 19 4 264 -265 0
8 19 4 -264 266 0
8 19 4 -264 -266 0
6 -13 -20 267 268 0
6 -13 -20 267 -268 0
6 -13 -20 -267 269 0
6 -13 -20 -267 -269 0
-2 -13 11 270 271 0
-2 -13 11 270 -271 0
-2 -13 11 -270 272 0
-2 -13 11 -270 -272 0
14 -13 17 273 274 0
14 -13 17 273 -274 0
14 -13 17 -273 275 0
14 -13 17 -273 -275 0
9 -11 18 276 277 0
9 -11 18 276 -277 0
9 -11 18 -276 278 0
9 -11 18 -276 -278 0
-13 -6 5 279 280 0
-13 -6 5 279 -280 0
-13 -6 5 -279 281 0
-13 -6 5 -279 -281 0
5 19 -18 282 283 0
5 19 -18 282 -283 0
5 19 -18 -282 284 0
5 19 -18 -282 -284 0
-4 10 11 285 286 0
-4 10 11 285 -286 0
-4 10 11 -285 287 0
-4 10 11 -285 -287 0
-18 -19 -20 288 289 0
-18 -19 -20 288 -289 0
-18 -19 -20 -288 290 0
-18 -19 -20 -288 -290 0
3 -9 8 291 292 0
3 -9 8 291 -292 0
3 -9 8 -291 293 0
3 -9 8 -291 -293 0
294 295 297 301 309 0
294 295 297 301 -309 0
294 295 297 -301 310 0
294 295 297 -301 -310 0
294 295 -297 302 311 0
294 295 -297 302 -311 0
294 295 -297 -302 312 0
294 295 -297 -302 -312 0
294 -295 298 303 313 0
294 -295 298 303 -313 0
294 -295 298 -303 314 0
294 -295 298 -303 -314 0
294 -295 -298 304 315 0
294 -295 -298 304 -315 0
294 -295 -298 -304 316 0
294 -295 -298 -304 -316 0
-294 296 299 305 317 0
-294 296 299 305 -317 0
-294 296 299 -305 318 0
-294 296 299 -305 -318 0
-294 296 -299 306 319 0
-294 296 -299 306 -319 0
-294 296 -299 -306 320 0
-294 296 -299 -306 -320 0
-294 -296 300 307 321 0
-294 -296 300 307 -321 0
-294 -296 300 -307 322 0
-294 -296 300 -307 -322 0
-294 -296 -300 308 323 0
-294 -296 -300 308 -323 0
-294 -296 -300 -308 324 0
-294 -296 -300 -308 -324 0
325 326 328 332 340 0
325 326 328 332 -340 0
325 326 328 -332 341 0
325 326 328 -332 -341 0
325 326 -328 333 342 0
325 326 -328 333 -342 0
325 326 -328 -333 343 0
325 326 -328 -333 -343 0
325 -326 329 334 344 0
325 -326 329 334 -344 0
325 -326 329 -334 345 0
325 -326 329 -334 -345 0
325 -326 -329 335 346 0
325 -326 -329 335 -346 0
325 -326 -329 -335 347 0
325 -326 -329 -335 -347 0
-325 327 330 336 348 0
-325 327 330 336 -348 0
-325 327 330 -336 349 0
-325 327 330 -336 -349 0
-325 327 -330 337 350 0
-325 327 -330 337 -350 0
-325 327 -330 -337 351 0
-325 327 -330 -337 -351 0
-325 -327 331 338 352 0
-325 -327 331 338 -352 0
-325 -327 331 -338 353 0
-325 -327 331 -338 -353 0
-325 -327 -331 339 354 0
-325 -327 -331 339 -354 0
-325 -327 -331 -339 355 0
-325 -327 -331 -339 -355 0
356 357 359 363 371 0
356 357 359 363 -371 0
356 357 359 -363 372 0
356 357 359 -363 -372 0
356 357 -359 364 373 0
356 357 -359 364 -373 0
356 357 -359 -364 374 0
356 357 -359 -364 -374 0
356 -357 360 365 375 0
356 -357 360 365 -375 0
356 -357 360 -365 376 0
356 -357 360 -365 -376 0
356 -357 -360 366 377 0
356 -357 -360 366 -377 0
356 -357 -360 -366 378 0
356 -357 -360 -366 -378 0
-356 358 361 367 379 0
-356 358 361 367 -379 0
-356 358 361 -367 380 0
-356 358 361 -367 -380 0
-356 358 -361 368 381 0
-356 358 -361 368 -381 0
-356 358 -361 -368 382 0
-356 358 -361 -368 -382 0
-356 -358 362 369 383 0
-356 -358 362 369 -383 0
-356 -358 362 -369 384 0
-356 -358 362 -369 -384 0
-356 -358 -362 370 385 0
-356 -358 -362 370 -385 0
-356 -358 -362 -370 386 0
-356 -358 -362 -370 -386 0

